GeneratedTests/Random_8/Random_8_16.tsp
NAME: Random_8_16
TYPE: TSP
DIMENSION: 8
EDGE_WEIGHT_TYPE: EUC_2D
NODE_COORD_SECTION
1 13.945103 21.687262
2 14.616493 17.56911
3 17.250486 21.10332
4 0.99391365 17.455149
5 7.4672484 19.111
6 16.000923 23.090118
7 22.652758 14.321596
8 7.2234864 11.963476
EOF
