GeneratedTests/Random_8/Random_8_16.txt
NAME: Random_8_16
TYPE: TSP
DIMENSION: 8
EDGE_WEIGHT_TYPE: EUC_2D
NODE_COORD_SECTION
1 18.627272 3.7494378
2 18.519901 15.083894
3 22.335974 10.46178
4 0.23048544 22.40299
5 12.497086 8.4728775
6 9.772867 6.3691077
7 19.088474 23.614456
8 17.588573 2.9493341
EOF
